\ENCODING=ISO-8859-1
\Problem name: IloCplex

Maximize
 obj: 1175 vnp2 - 3012 (π,ρ)0↑e4 - 24024 (π,ρ)1↑e5
      - 48 (π,ρ)2↑e5 - 7045 (π,ρ)3↑e5
      - 17031 (π,ρ)4↑e5 - 48 (π,ρ)5↑e5
      - 24024 (π,ρ)6↑e5 - 8044 (π,ρ)7↑e5
      - 3045 (π,ρ)8↑e5 - 7045 (π,ρ)9↑e5
      - 8044 (π,ρ)10↑e5 - 28028 (π,ρ)11↑e5
      - 52 (π,ρ)12↑e5 - 17031 (π,ρ)13↑e5
      - 3045 (π,ρ)14↑e5 - 52 (π,ρ)15↑e5
      - 24024 (π,ρ)16↑e5 - 35070 (π,ρ)17↑e6
      - 150 (π,ρ)18↑e6 - 150 (π,ρ)19↑e6
      - 140 (π,ρ)20↑e6 - 150 (π,ρ)21↑e6
      - 40080 (π,ρ)22↑e6 - 19122 (π,ρ)23↑e6
      - 6138 (π,ρ)24↑e6 - 150 (π,ρ)25↑e6
      - 19122 (π,ρ)26↑e6 - 40080 (π,ρ)27↑e6
      - 2146 (π,ρ)28↑e6 - 140 (π,ρ)29↑e6
      - 6138 (π,ρ)30↑e6 - 2146 (π,ρ)31↑e6
      - 35070 (π,ρ)32↑e6 - 12048 (π,ρ)33↑e7
      - 124 (π,ρ)34↑e7 - 176 (π,ρ)35↑e7
      - 1128 (π,ρ)36↑e7 - 124 (π,ρ)37↑e7
      - 19076 (π,ρ)38↑e7 - 2196 (π,ρ)39↑e7
      - 160 (π,ρ)40↑e7 - 176 (π,ρ)41↑e7
      - 2196 (π,ρ)42↑e7 - 32128 (π,ρ)43↑e7
      - 212 (π,ρ)44↑e7 - 1128 (π,ρ)45↑e7
      - 160 (π,ρ)46↑e7 - 212 (π,ρ)47↑e7
      - 21084 (π,ρ)48↑e7
Subject To
 _EmbdConstr_vnp2e4#0:   vnp2 - (π,ρ)0↑e4  = 0
 _EmbdConstr_vnp2e5#1:   vnp2 - (π,ρ)1↑e5 - (π,ρ)2↑e5
                         - (π,ρ)3↑e5 - (π,ρ)4↑e5
                         - (π,ρ)5↑e5 - (π,ρ)6↑e5
                         - (π,ρ)7↑e5 - (π,ρ)8↑e5
                         - (π,ρ)9↑e5 - (π,ρ)10↑e5
                         - (π,ρ)11↑e5 - (π,ρ)12↑e5
                         - (π,ρ)13↑e5 - (π,ρ)14↑e5
                         - (π,ρ)15↑e5 - (π,ρ)16↑e5  = 0
 _EmbdConstr_vnp2e6#2:   vnp2 - (π,ρ)17↑e6 - (π,ρ)18↑e6
                         - (π,ρ)19↑e6 - (π,ρ)20↑e6
                         - (π,ρ)21↑e6 - (π,ρ)22↑e6
                         - (π,ρ)23↑e6 - (π,ρ)24↑e6
                         - (π,ρ)25↑e6 - (π,ρ)26↑e6
                         - (π,ρ)27↑e6 - (π,ρ)28↑e6
                         - (π,ρ)29↑e6 - (π,ρ)30↑e6
                         - (π,ρ)31↑e6 - (π,ρ)32↑e6  = 0
 _EmbdConstr_vnp2e7#3:   vnp2 - (π,ρ)33↑e7 - (π,ρ)34↑e7
                         - (π,ρ)35↑e7 - (π,ρ)36↑e7
                         - (π,ρ)37↑e7 - (π,ρ)38↑e7
                         - (π,ρ)39↑e7 - (π,ρ)40↑e7
                         - (π,ρ)41↑e7 - (π,ρ)42↑e7
                         - (π,ρ)43↑e7 - (π,ρ)44↑e7
                         - (π,ρ)45↑e7 - (π,ρ)46↑e7
                         - (π,ρ)47↑e7 - (π,ρ)48↑e7  = 0
 BwCapConstr_slink1#4:   8 (π,ρ)0↑e4 + (π,ρ)2↑e5
                         + (π,ρ)4↑e5 + (π,ρ)5↑e5
                         + 2 (π,ρ)6↑e5 + (π,ρ)7↑e5
                         + 2 (π,ρ)8↑e5 + (π,ρ)10↑e5
                         + (π,ρ)12↑e5 + (π,ρ)13↑e5
                         + 2 (π,ρ)14↑e5 + (π,ρ)15↑e5
                         + 2 (π,ρ)16↑e5 <= 20
 BwCapConstr_slink2#5:   2 (π,ρ)1↑e5 + (π,ρ)2↑e5
                         + 2 (π,ρ)3↑e5 + (π,ρ)4↑e5
                         + (π,ρ)5↑e5 + (π,ρ)7↑e5
                         + 2 (π,ρ)9↑e5 + (π,ρ)10↑e5
                         + 2 (π,ρ)11↑e5 + (π,ρ)12↑e5
                         + (π,ρ)13↑e5 + (π,ρ)15↑e5 <= 20
 BwCapConstr_slink3#6:   2 (π,ρ)20↑e6 + 2 (π,ρ)24↑e6
                         + 2 (π,ρ)28↑e6 + 2 (π,ρ)29↑e6
                         + 2 (π,ρ)30↑e6 + 2 (π,ρ)31↑e6
                         + 4 (π,ρ)32↑e6 <= 9
 BwCapConstr_slink5#7:   (π,ρ)4↑e5 + (π,ρ)8↑e5
                         + (π,ρ)12↑e5 + (π,ρ)13↑e5
                         + (π,ρ)14↑e5 + (π,ρ)15↑e5
                         + 2 (π,ρ)16↑e5 + 2 (π,ρ)18↑e6
                         + 2 (π,ρ)20↑e6 + 2 (π,ρ)21↑e6
                         + 4 (π,ρ)22↑e6 + 2 (π,ρ)23↑e6
                         + 4 (π,ρ)24↑e6 + 2 (π,ρ)26↑e6
                         + 2 (π,ρ)28↑e6 + 2 (π,ρ)29↑e6
                         + 4 (π,ρ)30↑e6 + 2 (π,ρ)31↑e6
                         + 4 (π,ρ)32↑e6 <= 14
 BwCapConstr_slink6#8:   (π,ρ)2↑e5 + (π,ρ)5↑e5
                         + 2 (π,ρ)6↑e5 + (π,ρ)7↑e5
                         + (π,ρ)8↑e5 + (π,ρ)10↑e5
                         + (π,ρ)14↑e5 + 2 (π,ρ)19↑e6
                         + 2 (π,ρ)23↑e6 + 2 (π,ρ)25↑e6
                         + 2 (π,ρ)26↑e6 + 4 (π,ρ)27↑e6
                         + 2 (π,ρ)28↑e6 + 2 (π,ρ)31↑e6
                         <= 4
 BwCapConstr_slink7#9:   (π,ρ)3↑e5 + (π,ρ)7↑e5
                         + (π,ρ)9↑e5 + (π,ρ)10↑e5
                         + 2 (π,ρ)11↑e5 + (π,ρ)12↑e5
                         + (π,ρ)15↑e5 <= 11
 BwCapConstr_slink8#10:  2 (π,ρ)1↑e5 + (π,ρ)2↑e5
                         + (π,ρ)3↑e5 + 2 (π,ρ)4↑e5
                         + (π,ρ)5↑e5 + (π,ρ)8↑e5
                         + (π,ρ)9↑e5 + (π,ρ)12↑e5
                         + 2 (π,ρ)13↑e5 + (π,ρ)14↑e5
                         + (π,ρ)15↑e5 + 2 (π,ρ)16↑e5
                         + 2 (π,ρ)18↑e6 + 2 (π,ρ)21↑e6
                         + 4 (π,ρ)22↑e6 + 2 (π,ρ)23↑e6
                         + 2 (π,ρ)24↑e6 + 2 (π,ρ)26↑e6
                         + 2 (π,ρ)30↑e6 <= 2
 BwCapConstr_slink9#11:  (π,ρ)2↑e5 + (π,ρ)3↑e5
                         + (π,ρ)5↑e5 + 2 (π,ρ)6↑e5
                         + 2 (π,ρ)7↑e5 + (π,ρ)8↑e5
                         + (π,ρ)9↑e5 + 2 (π,ρ)10↑e5
                         + 2 (π,ρ)11↑e5 + (π,ρ)12↑e5
                         + (π,ρ)14↑e5 + (π,ρ)15↑e5
                         + 2 (π,ρ)19↑e6 + 2 (π,ρ)23↑e6
                         + 2 (π,ρ)25↑e6 + 2 (π,ρ)26↑e6
                         + 4 (π,ρ)27↑e6 + 2 (π,ρ)28↑e6
                         + 2 (π,ρ)31↑e6 <= 6
 BwCapConstr_slink10#12: 4 (π,ρ)35↑e7 + 4 (π,ρ)39↑e7
                         + 4 (π,ρ)41↑e7 + 4 (π,ρ)42↑e7
                         + 8 (π,ρ)43↑e7 + 4 (π,ρ)44↑e7
                         + 4 (π,ρ)47↑e7 <= 20
 BwCapConstr_slink11#13: 2 (π,ρ)20↑e6 + 2 (π,ρ)24↑e6
                         + 2 (π,ρ)28↑e6 + 2 (π,ρ)29↑e6
                         + 2 (π,ρ)30↑e6 + 2 (π,ρ)31↑e6
                         + 4 (π,ρ)32↑e6 + 4 (π,ρ)35↑e7
                         + 4 (π,ρ)39↑e7 + 4 (π,ρ)41↑e7
                         + 4 (π,ρ)42↑e7 + 8 (π,ρ)43↑e7
                         + 4 (π,ρ)44↑e7 + 4 (π,ρ)47↑e7
                         <= 9
 BwCapConstr_slink15#14: 4 (π,ρ)17↑e6 + 2 (π,ρ)18↑e6
                         + 2 (π,ρ)19↑e6 + 2 (π,ρ)20↑e6
                         + 2 (π,ρ)21↑e6 + 2 (π,ρ)25↑e6
                         + 2 (π,ρ)29↑e6 <= 4
 BwCapConstr_slink25#15: 8 (π,ρ)33↑e7 + 4 (π,ρ)34↑e7
                         + 4 (π,ρ)35↑e7 + 8 (π,ρ)36↑e7
                         + 4 (π,ρ)37↑e7 + 4 (π,ρ)40↑e7
                         + 4 (π,ρ)41↑e7 + 4 (π,ρ)44↑e7
                         + 8 (π,ρ)45↑e7 + 4 (π,ρ)46↑e7
                         + 4 (π,ρ)47↑e7 + 8 (π,ρ)48↑e7
                         <= 12
 BwCapConstr_slink26#16: 2 (π,ρ)18↑e6 + 2 (π,ρ)19↑e6
                         + 2 (π,ρ)21↑e6 + 4 (π,ρ)22↑e6
                         + 4 (π,ρ)23↑e6 + 2 (π,ρ)24↑e6
                         + 2 (π,ρ)25↑e6 + 4 (π,ρ)26↑e6
                         + 4 (π,ρ)27↑e6 + 2 (π,ρ)28↑e6
                         + 2 (π,ρ)30↑e6 + 2 (π,ρ)31↑e6
                         + 4 (π,ρ)34↑e7 + 4 (π,ρ)37↑e7
                         + 8 (π,ρ)38↑e7 + 4 (π,ρ)39↑e7
                         + 4 (π,ρ)40↑e7 + 4 (π,ρ)42↑e7
                         + 4 (π,ρ)46↑e7 <= 7
 BwCapConstr_slink31#17: 4 (π,ρ)17↑e6 + 2 (π,ρ)18↑e6
                         + 2 (π,ρ)19↑e6 + 2 (π,ρ)20↑e6
                         + 2 (π,ρ)21↑e6 + 2 (π,ρ)25↑e6
                         + 2 (π,ρ)29↑e6 <= 10
 BwCapConstr_slink33#18: 4 (π,ρ)17↑e6 + 2 (π,ρ)18↑e6
                         + 2 (π,ρ)19↑e6 + 2 (π,ρ)20↑e6
                         + 2 (π,ρ)21↑e6 + 2 (π,ρ)25↑e6
                         + 2 (π,ρ)29↑e6 <= 17
 BwCapConstr_slink37#19: 4 (π,ρ)36↑e7 + 4 (π,ρ)40↑e7
                         + 4 (π,ρ)44↑e7 + 4 (π,ρ)45↑e7
                         + 4 (π,ρ)46↑e7 + 4 (π,ρ)47↑e7
                         + 8 (π,ρ)48↑e7 <= 13
 BwCapConstr_slink38#20: 8 (π,ρ)33↑e7 + 4 (π,ρ)34↑e7
                         + 4 (π,ρ)35↑e7 + 4 (π,ρ)36↑e7
                         + 4 (π,ρ)37↑e7 + 4 (π,ρ)41↑e7
                         + 4 (π,ρ)45↑e7 <= 20
 BwCapConstr_slink39#21: 4 (π,ρ)17↑e6 + 2 (π,ρ)18↑e6
                         + 2 (π,ρ)19↑e6 + 2 (π,ρ)20↑e6
                         + 2 (π,ρ)21↑e6 + 2 (π,ρ)25↑e6
                         + 2 (π,ρ)29↑e6 + 4 (π,ρ)36↑e7
                         + 4 (π,ρ)40↑e7 + 4 (π,ρ)44↑e7
                         + 4 (π,ρ)45↑e7 + 4 (π,ρ)46↑e7
                         + 4 (π,ρ)47↑e7 + 8 (π,ρ)48↑e7
                         <= 20
 BwCapConstr_slink41#22: 2 (π,ρ)18↑e6 + 2 (π,ρ)19↑e6
                         + 2 (π,ρ)20↑e6 + 2 (π,ρ)21↑e6
                         + 4 (π,ρ)22↑e6 + 4 (π,ρ)23↑e6
                         + 4 (π,ρ)24↑e6 + 2 (π,ρ)25↑e6
                         + 4 (π,ρ)26↑e6 + 4 (π,ρ)27↑e6
                         + 4 (π,ρ)28↑e6 + 2 (π,ρ)29↑e6
                         + 4 (π,ρ)30↑e6 + 4 (π,ρ)31↑e6
                         + 4 (π,ρ)32↑e6 + 4 (π,ρ)34↑e7
                         + 4 (π,ρ)35↑e7 + 4 (π,ρ)37↑e7
                         + 8 (π,ρ)38↑e7 + 8 (π,ρ)39↑e7
                         + 4 (π,ρ)40↑e7 + 4 (π,ρ)41↑e7
                         + 8 (π,ρ)42↑e7 + 8 (π,ρ)43↑e7
                         + 4 (π,ρ)44↑e7 + 4 (π,ρ)46↑e7
                         + 4 (π,ρ)47↑e7 <= 20
Bounds
 0 <= vnp2 <= 1
 0 <= (π,ρ)0↑e4 <= 1
 0 <= (π,ρ)1↑e5 <= 1
 0 <= (π,ρ)2↑e5 <= 1
 0 <= (π,ρ)3↑e5 <= 1
 0 <= (π,ρ)4↑e5 <= 1
 0 <= (π,ρ)5↑e5 <= 1
 0 <= (π,ρ)6↑e5 <= 1
 0 <= (π,ρ)7↑e5 <= 1
 0 <= (π,ρ)8↑e5 <= 1
 0 <= (π,ρ)9↑e5 <= 1
 0 <= (π,ρ)10↑e5 <= 1
 0 <= (π,ρ)11↑e5 <= 1
 0 <= (π,ρ)12↑e5 <= 1
 0 <= (π,ρ)13↑e5 <= 1
 0 <= (π,ρ)14↑e5 <= 1
 0 <= (π,ρ)15↑e5 <= 1
 0 <= (π,ρ)16↑e5 <= 1
 0 <= (π,ρ)17↑e6 <= 1
 0 <= (π,ρ)18↑e6 <= 1
 0 <= (π,ρ)19↑e6 <= 1
 0 <= (π,ρ)20↑e6 <= 1
 0 <= (π,ρ)21↑e6 <= 1
 0 <= (π,ρ)22↑e6 <= 1
 0 <= (π,ρ)23↑e6 <= 1
 0 <= (π,ρ)24↑e6 <= 1
 0 <= (π,ρ)25↑e6 <= 1
 0 <= (π,ρ)26↑e6 <= 1
 0 <= (π,ρ)27↑e6 <= 1
 0 <= (π,ρ)28↑e6 <= 1
 0 <= (π,ρ)29↑e6 <= 1
 0 <= (π,ρ)30↑e6 <= 1
 0 <= (π,ρ)31↑e6 <= 1
 0 <= (π,ρ)32↑e6 <= 1
 0 <= (π,ρ)33↑e7 <= 1
 0 <= (π,ρ)34↑e7 <= 1
 0 <= (π,ρ)35↑e7 <= 1
 0 <= (π,ρ)36↑e7 <= 1
 0 <= (π,ρ)37↑e7 <= 1
 0 <= (π,ρ)38↑e7 <= 1
 0 <= (π,ρ)39↑e7 <= 1
 0 <= (π,ρ)40↑e7 <= 1
 0 <= (π,ρ)41↑e7 <= 1
 0 <= (π,ρ)42↑e7 <= 1
 0 <= (π,ρ)43↑e7 <= 1
 0 <= (π,ρ)44↑e7 <= 1
 0 <= (π,ρ)45↑e7 <= 1
 0 <= (π,ρ)46↑e7 <= 1
 0 <= (π,ρ)47↑e7 <= 1
 0 <= (π,ρ)48↑e7 <= 1
Binaries
 vnp2  (π,ρ)0↑e4  (π,ρ)1↑e5  (π,ρ)2↑e5 
 (π,ρ)3↑e5  (π,ρ)4↑e5  (π,ρ)5↑e5 
 (π,ρ)6↑e5  (π,ρ)7↑e5  (π,ρ)8↑e5 
 (π,ρ)9↑e5  (π,ρ)10↑e5  (π,ρ)11↑e5 
 (π,ρ)12↑e5  (π,ρ)13↑e5  (π,ρ)14↑e5 
 (π,ρ)15↑e5  (π,ρ)16↑e5  (π,ρ)17↑e6 
 (π,ρ)18↑e6  (π,ρ)19↑e6  (π,ρ)20↑e6 
 (π,ρ)21↑e6  (π,ρ)22↑e6  (π,ρ)23↑e6 
 (π,ρ)24↑e6  (π,ρ)25↑e6  (π,ρ)26↑e6 
 (π,ρ)27↑e6  (π,ρ)28↑e6  (π,ρ)29↑e6 
 (π,ρ)30↑e6  (π,ρ)31↑e6  (π,ρ)32↑e6 
 (π,ρ)33↑e7  (π,ρ)34↑e7  (π,ρ)35↑e7 
 (π,ρ)36↑e7  (π,ρ)37↑e7  (π,ρ)38↑e7 
 (π,ρ)39↑e7  (π,ρ)40↑e7  (π,ρ)41↑e7 
 (π,ρ)42↑e7  (π,ρ)43↑e7  (π,ρ)44↑e7 
 (π,ρ)45↑e7  (π,ρ)46↑e7  (π,ρ)47↑e7 
 (π,ρ)48↑e7 
End
